(set-logic HORN)
(set-info :source |
    Benchmark: C_VC
    Output by Princess (http://www.philipp.ruemmer.org/princess.shtml)
|)
(set-info :status unknown)
(declare-fun inv_main13 (Int Int Int Int) Bool)
(declare-fun inv_main14 (Int Int Int Int) Bool)
(declare-fun inv_main2 () Bool)
(assert inv_main2 )
(assert (forall ((var0 Int)) (forall ((var1 Int)) (forall ((var2 Int)) (forall ((var3 Int)) (or (not (and (inv_main13 var2 var3 var1 var0 ) (not (<= 0 (+ var0 (- 1) ) ) ) ) ) (inv_main14 var2 var3 var1 var0 ) ) ) ) ) ) )
(assert (forall ((var0 Int)) (forall ((var1 Int)) (forall ((var2 Int)) (forall ((var3 Int)) (or (not (and (inv_main13 var2 var3 var1 var0 ) (<= 0 (+ var0 (- 1) ) ) ) ) (inv_main13 var2 var3 (+ var1 1 ) (+ var0 (- 1) ) ) ) ) ) ) ) )
(assert (forall ((var0 Int)) (forall ((var1 Int)) (or (not (and inv_main2 (and (and (<= 0 var1 ) (<= 0 (+ 1000000 (* (- 1) var1 ) ) ) ) (<= 0 (+ 1000000 (* (- 1) var0 ) ) ) ) ) ) (inv_main13 var0 var1 var0 var1 ) ) ) ) )
(assert (forall ((var0 Int)) (forall ((var1 Int)) (forall ((var2 Int)) (forall ((var3 Int)) (not (and (inv_main14 var2 var3 var1 var0 ) (not (= var1 (+ var2 var3 ) ) ) ) ) ) ) ) ) )
(check-sat)
